c CNF file generated from BLIF2CNF script.
c Original BLIF file was blif/bw.blif
p cnf 284 1651
-1 -7 0
3 -7 0
-4 -7 0
5 -7 0
7 1 -3 4 -5  0
-7 6 0
1 -8 0
-3 -8 0
-4 -8 0
5 -8 0
8 -1 3 4 -5  0
-8 6 0
2 -9 0
-3 -9 0
-4 -9 0
5 -9 0
9 -2 3 4 -5  0
-9 6 0
-1 -10 0
2 -10 0
3 -10 0
-5 -10 0
10 1 -2 -3 5  0
-10 6 0
-1 -11 0
3 -11 0
4 -11 0
-5 -11 0
11 1 -3 -4 5  0
-11 6 0
1 -12 0
2 -12 0
-3 -12 0
4 -12 0
-5 -12 0
12 -1 -2 3 -4 5  0
-12 6 0
-6 7 8 9 10 11 12  0
2 -14 0
-3 -14 0
14 -2 3  0
-14 13 0
-1 -15 0
2 -15 0
-4 -15 0
15 1 -2 4  0
-15 13 0
-1 -16 0
2 -16 0
-5 -16 0
16 1 -2 5  0
-16 13 0
-13 14 15 16  0
-1 -18 0
-3 -18 0
4 -18 0
-5 -18 0
18 1 3 -4 5  0
-18 17 0
1 -19 0
-3 -19 0
-4 -19 0
-5 -19 0
19 -1 3 4 5  0
-19 17 0
-1 -20 0
-2 -20 0
-3 -20 0
-4 -20 0
5 -20 0
20 1 2 3 4 -5  0
-20 17 0
-17 18 19 20  0
1 -22 0
-3 -22 0
4 -22 0
22 -1 3 -4  0
-22 21 0
1 -23 0
-3 -23 0
-5 -23 0
23 -1 3 5  0
-23 21 0
-3 -24 0
4 -24 0
-5 -24 0
24 3 -4 5  0
-24 21 0
-1 -25 0
-3 -25 0
-4 -25 0
5 -25 0
25 1 3 4 -5  0
-25 21 0
-1 -26 0
3 -26 0
-4 -26 0
-5 -26 0
26 1 -3 4 5  0
-26 21 0
-21 22 23 24 25 26  0
1 -28 0
-2 -28 0
-3 -28 0
4 -28 0
28 -1 2 3 -4  0
-28 27 0
-1 -29 0
-2 -29 0
-3 -29 0
5 -29 0
29 1 2 3 -5  0
-29 27 0
1 -30 0
-3 -30 0
4 -30 0
-5 -30 0
30 -1 3 -4 5  0
-30 27 0
-1 -31 0
-2 -31 0
3 -31 0
4 -31 0
-5 -31 0
31 1 2 -3 -4 5  0
-31 27 0
-27 28 29 30 31  0
1 -33 0
-3 -33 0
33 -1 3  0
-33 32 0
2 -34 0
-3 -34 0
34 -2 3  0
-34 32 0
-3 -35 0
4 -35 0
35 3 -4  0
-35 32 0
-1 -36 0
-5 -36 0
36 1 5  0
-36 32 0
-1 -37 0
3 -37 0
-4 -37 0
37 1 -3 4  0
-37 32 0
-32 33 34 35 36 37  0
1 -39 0
2 -39 0
-3 -39 0
39 -1 -2 3  0
-39 38 0
1 -40 0
-3 -40 0
4 -40 0
40 -1 3 -4  0
-40 38 0
1 -41 0
-3 -41 0
5 -41 0
41 -1 3 -5  0
-41 38 0
2 -42 0
-3 -42 0
4 -42 0
5 -42 0
42 -2 3 -4 -5  0
-42 38 0
-1 -43 0
2 -43 0
3 -43 0
-5 -43 0
43 1 -2 -3 5  0
-43 38 0
-1 -44 0
3 -44 0
4 -44 0
-5 -44 0
44 1 -3 -4 5  0
-44 38 0
-38 39 40 41 42 43 44  0
-1 -46 0
-2 -46 0
-5 -46 0
46 1 2 5  0
-46 45 0
-1 -47 0
3 -47 0
-5 -47 0
47 1 -3 5  0
-47 45 0
-1 -48 0
-4 -48 0
-5 -48 0
48 1 4 5  0
-48 45 0
1 -49 0
-3 -49 0
4 -49 0
-5 -49 0
49 -1 3 -4 5  0
-49 45 0
-45 46 47 48 49  0
1 -51 0
-3 -51 0
5 -51 0
51 -1 3 -5  0
-51 50 0
2 -52 0
-3 -52 0
-5 -52 0
52 -2 3 5  0
-52 50 0
-3 -53 0
4 -53 0
-5 -53 0
53 3 -4 5  0
-53 50 0
-2 -54 0
-3 -54 0
-4 -54 0
5 -54 0
54 2 3 4 -5  0
-54 50 0
-1 -55 0
-2 -55 0
3 -55 0
-4 -55 0
-5 -55 0
55 1 2 -3 4 5  0
-55 50 0
-50 51 52 53 54 55  0
-3 -57 0
57 3  0
-57 56 0
-1 -58 0
-5 -58 0
58 1 5  0
-58 56 0
-1 -59 0
2 -59 0
-4 -59 0
59 1 -2 4  0
-59 56 0
-56 57 58 59  0
-1 -61 0
-2 -61 0
-3 -61 0
4 -61 0
-5 -61 0
61 1 2 3 -4 5  0
-61 60 0
-1 -62 0
2 -62 0
-3 -62 0
-4 -62 0
-5 -62 0
62 1 -2 3 4 5  0
-62 60 0
-60 61 62  0
-2 -64 0
-3 -64 0
4 -64 0
5 -64 0
64 2 3 -4 -5  0
-64 63 0
-1 -65 0
-2 -65 0
-3 -65 0
-5 -65 0
65 1 2 3 5  0
-65 63 0
-1 -66 0
-2 -66 0
-4 -66 0
-5 -66 0
66 1 2 4 5  0
-66 63 0
-2 -67 0
-3 -67 0
-4 -67 0
-5 -67 0
67 2 3 4 5  0
-67 63 0
-63 64 65 66 67  0
-3 -69 0
69 3  0
-69 68 0
-1 -70 0
-5 -70 0
70 1 5  0
-70 68 0
-1 -71 0
-2 -71 0
-4 -71 0
71 1 2 4  0
-71 68 0
-68 69 70 71  0
1 -73 0
-3 -73 0
5 -73 0
73 -1 3 -5  0
-73 72 0
1 -74 0
2 -74 0
-3 -74 0
4 -74 0
74 -1 -2 3 -4  0
-74 72 0
-1 -75 0
-2 -75 0
3 -75 0
-4 -75 0
-5 -75 0
75 1 2 -3 4 5  0
-75 72 0
-1 -76 0
2 -76 0
-3 -76 0
-4 -76 0
-5 -76 0
76 1 -2 3 4 5  0
-76 72 0
-72 73 74 75 76  0
-1 -78 0
3 -78 0
-4 -78 0
-5 -78 0
78 1 -3 4 5  0
-78 77 0
1 -79 0
2 -79 0
-3 -79 0
4 -79 0
5 -79 0
79 -1 -2 3 -4 -5  0
-79 77 0
1 -80 0
2 -80 0
-3 -80 0
-4 -80 0
-5 -80 0
80 -1 -2 3 4 5  0
-80 77 0
-77 78 79 80  0
-1 -82 0
-2 -82 0
-3 -82 0
4 -82 0
82 1 2 3 -4  0
-82 81 0
-1 -83 0
2 -83 0
-3 -83 0
-4 -83 0
83 1 -2 3 4  0
-83 81 0
-1 -84 0
-3 -84 0
4 -84 0
5 -84 0
84 1 3 -4 -5  0
-84 81 0
-1 -85 0
3 -85 0
4 -85 0
-5 -85 0
85 1 -3 -4 5  0
-85 81 0
-81 82 83 84 85  0
-3 -87 0
87 3  0
-87 86 0
-1 -88 0
-4 -88 0
88 1 4  0
-88 86 0
-1 -89 0
2 -89 0
-5 -89 0
89 1 -2 5  0
-89 86 0
-86 87 88 89  0
-1 -91 0
2 -91 0
-3 -91 0
-4 -91 0
91 1 -2 3 4  0
-91 90 0
1 -92 0
2 -92 0
-3 -92 0
5 -92 0
92 -1 -2 3 -5  0
-92 90 0
-1 -93 0
-2 -93 0
-3 -93 0
5 -93 0
93 1 2 3 -5  0
-93 90 0
1 -94 0
-3 -94 0
4 -94 0
5 -94 0
94 -1 3 -4 -5  0
-94 90 0
-1 -95 0
-3 -95 0
4 -95 0
-5 -95 0
95 1 3 -4 5  0
-95 90 0
1 -96 0
-2 -96 0
-3 -96 0
-4 -96 0
-5 -96 0
96 -1 2 3 4 5  0
-96 90 0
-90 91 92 93 94 95 96  0
-1 -98 0
-2 -98 0
3 -98 0
-4 -98 0
98 1 2 -3 4  0
-98 97 0
1 -99 0
-2 -99 0
-3 -99 0
-4 -99 0
99 -1 2 3 4  0
-99 97 0
-2 -100 0
-3 -100 0
-4 -100 0
5 -100 0
100 2 3 4 -5  0
-100 97 0
-1 -101 0
-2 -101 0
-3 -101 0
4 -101 0
-5 -101 0
101 1 2 3 -4 5  0
-101 97 0
-97 98 99 100 101  0
1 -103 0
-3 -103 0
4 -103 0
103 -1 3 -4  0
-103 102 0
1 -104 0
-3 -104 0
-5 -104 0
104 -1 3 5  0
-104 102 0
-2 -105 0
-3 -105 0
-5 -105 0
105 2 3 5  0
-105 102 0
-3 -106 0
4 -106 0
-5 -106 0
106 3 -4 5  0
-106 102 0
-1 -107 0
-3 -107 0
-4 -107 0
5 -107 0
107 1 3 4 -5  0
-107 102 0
-1 -108 0
3 -108 0
-4 -108 0
-5 -108 0
108 1 -3 4 5  0
-108 102 0
-102 103 104 105 106 107 108  0
1 -110 0
-3 -110 0
5 -110 0
110 -1 3 -5  0
-110 109 0
-3 -111 0
4 -111 0
5 -111 0
111 3 -4 -5  0
-111 109 0
-1 -112 0
3 -112 0
-4 -112 0
5 -112 0
112 1 -3 4 -5  0
-112 109 0
-1 -113 0
3 -113 0
4 -113 0
-5 -113 0
113 1 -3 -4 5  0
-113 109 0
-1 -114 0
-3 -114 0
-4 -114 0
-5 -114 0
114 1 3 4 5  0
-114 109 0
-109 110 111 112 113 114  0
-1 -116 0
2 -116 0
3 -116 0
-4 -116 0
-5 -116 0
116 1 -2 -3 4 5  0
-116 115 0
-115 116  0
-1 -118 0
-3 -118 0
4 -118 0
5 -118 0
118 1 3 -4 -5  0
-118 117 0
-1 -119 0
3 -119 0
-4 -119 0
5 -119 0
119 1 -3 4 -5  0
-119 117 0
1 -120 0
-3 -120 0
-4 -120 0
5 -120 0
120 -1 3 4 -5  0
-120 117 0
-1 -121 0
-2 -121 0
-3 -121 0
-5 -121 0
121 1 2 3 5  0
-121 117 0
-1 -122 0
3 -122 0
4 -122 0
-5 -122 0
122 1 -3 -4 5  0
-122 117 0
-1 -123 0
-3 -123 0
-4 -123 0
-5 -123 0
123 1 3 4 5  0
-123 117 0
-117 118 119 120 121 122 123  0
-1 -125 0
-2 -125 0
-3 -125 0
5 -125 0
125 1 2 3 -5  0
-125 124 0
-1 -126 0
-2 -126 0
3 -126 0
-5 -126 0
126 1 2 -3 5  0
-126 124 0
1 -127 0
2 -127 0
-3 -127 0
4 -127 0
5 -127 0
127 -1 -2 3 -4 -5  0
-127 124 0
-1 -128 0
2 -128 0
-3 -128 0
4 -128 0
-5 -128 0
128 1 -2 3 -4 5  0
-128 124 0
1 -129 0
-2 -129 0
-3 -129 0
4 -129 0
-5 -129 0
129 -1 2 3 -4 5  0
-129 124 0
-124 125 126 127 128 129  0
2 -131 0
-3 -131 0
131 -2 3  0
-131 130 0
-1 -132 0
-4 -132 0
132 1 4  0
-132 130 0
-3 -133 0
-4 -133 0
133 3 4  0
-133 130 0
-3 -134 0
5 -134 0
134 3 -5  0
-134 130 0
-1 -135 0
-5 -135 0
135 1 5  0
-135 130 0
-130 131 132 133 134 135  0
-1 -137 0
3 -137 0
-5 -137 0
137 1 -3 5  0
-137 136 0
1 -138 0
-3 -138 0
4 -138 0
5 -138 0
138 -1 3 -4 -5  0
-138 136 0
-2 -139 0
-3 -139 0
4 -139 0
5 -139 0
139 2 3 -4 -5  0
-139 136 0
2 -140 0
-3 -140 0
-4 -140 0
5 -140 0
140 -2 3 4 -5  0
-140 136 0
1 -141 0
-2 -141 0
-3 -141 0
-4 -141 0
-5 -141 0
141 -1 2 3 4 5  0
-141 136 0
-136 137 138 139 140 141  0
1 -143 0
-3 -143 0
143 -1 3  0
-143 142 0
-3 -144 0
5 -144 0
144 3 -5  0
-144 142 0
2 -145 0
-3 -145 0
4 -145 0
145 -2 3 -4  0
-145 142 0
-1 -146 0
-2 -146 0
3 -146 0
-4 -146 0
-5 -146 0
146 1 2 -3 4 5  0
-146 142 0
-142 143 144 145 146  0
-1 -148 0
-2 -148 0
-3 -148 0
-4 -148 0
-5 -148 0
148 1 2 3 4 5  0
-148 147 0
-147 148  0
1 -149 0
2 -149 0
-3 -149 0
4 -149 0
5 -149 0
149 -1 -2 3 -4 -5  0
-149 6 0
-1 -150 0
2 -150 0
-3 -150 0
4 -150 0
5 -150 0
150 1 -2 3 -4 -5  0
-150 6 0
1 -151 0
-2 -151 0
-3 -151 0
4 -151 0
5 -151 0
151 -1 2 3 -4 -5  0
-151 6 0
-1 -152 0
-2 -152 0
-3 -152 0
4 -152 0
5 -152 0
152 1 2 3 -4 -5  0
-152 6 0
-1 -153 0
2 -153 0
-3 -153 0
4 -153 0
-5 -153 0
153 1 -2 3 -4 5  0
-153 6 0
-1 -154 0
-2 -154 0
-3 -154 0
4 -154 0
-5 -154 0
154 1 2 3 -4 5  0
-154 6 0
1 -155 0
2 -155 0
-3 -155 0
-4 -155 0
-5 -155 0
155 -1 -2 3 4 5  0
-155 6 0
-1 -156 0
2 -156 0
-3 -156 0
-4 -156 0
-5 -156 0
156 1 -2 3 4 5  0
-156 6 0
1 -157 0
-2 -157 0
-3 -157 0
-4 -157 0
-5 -157 0
157 -1 2 3 4 5  0
-157 6 0
-1 -158 0
-2 -158 0
-3 -158 0
-4 -158 0
-5 -158 0
158 1 2 3 4 5  0
-158 6 0
-6 149 150 151 152 153 154 155 156 157 158  0
-13 0
1 -159 0
2 -159 0
-3 -159 0
4 -159 0
5 -159 0
159 -1 -2 3 -4 -5  0
-159 17 0
1 -160 0
-2 -160 0
-3 -160 0
4 -160 0
5 -160 0
160 -1 2 3 -4 -5  0
-160 17 0
-1 -161 0
2 -161 0
3 -161 0
-4 -161 0
5 -161 0
161 1 -2 -3 4 -5  0
-161 17 0
-1 -162 0
-2 -162 0
3 -162 0
-4 -162 0
5 -162 0
162 1 2 -3 4 -5  0
-162 17 0
1 -163 0
2 -163 0
-3 -163 0
-4 -163 0
5 -163 0
163 -1 -2 3 4 -5  0
-163 17 0
1 -164 0
-2 -164 0
-3 -164 0
-4 -164 0
5 -164 0
164 -1 2 3 4 -5  0
-164 17 0
-1 -165 0
2 -165 0
3 -165 0
4 -165 0
-5 -165 0
165 1 -2 -3 -4 5  0
-165 17 0
1 -166 0
2 -166 0
-3 -166 0
4 -166 0
-5 -166 0
166 -1 -2 3 -4 5  0
-166 17 0
1 -167 0
-2 -167 0
-3 -167 0
4 -167 0
-5 -167 0
167 -1 2 3 -4 5  0
-167 17 0
-1 -168 0
-2 -168 0
3 -168 0
-4 -168 0
-5 -168 0
168 1 2 -3 4 5  0
-168 17 0
-1 -169 0
-2 -169 0
-3 -169 0
-4 -169 0
-5 -169 0
169 1 2 3 4 5  0
-169 17 0
-17 159 160 161 162 163 164 165 166 167 168 169  0
-1 -170 0
2 -170 0
-3 -170 0
4 -170 0
5 -170 0
170 1 -2 3 -4 -5  0
-170 21 0
-1 -171 0
-2 -171 0
-3 -171 0
4 -171 0
5 -171 0
171 1 2 3 -4 -5  0
-171 21 0
-1 -172 0
2 -172 0
3 -172 0
-4 -172 0
5 -172 0
172 1 -2 -3 4 -5  0
-172 21 0
-1 -173 0
-2 -173 0
3 -173 0
-4 -173 0
5 -173 0
173 1 2 -3 4 -5  0
-173 21 0
1 -174 0
2 -174 0
-3 -174 0
-4 -174 0
5 -174 0
174 -1 -2 3 4 -5  0
-174 21 0
1 -175 0
-2 -175 0
-3 -175 0
-4 -175 0
5 -175 0
175 -1 2 3 4 -5  0
-175 21 0
-1 -176 0
2 -176 0
3 -176 0
4 -176 0
-5 -176 0
176 1 -2 -3 -4 5  0
-176 21 0
-1 -177 0
-2 -177 0
3 -177 0
4 -177 0
-5 -177 0
177 1 2 -3 -4 5  0
-177 21 0
-21 170 171 172 173 174 175 176 177  0
-1 -178 0
2 -178 0
3 -178 0
-4 -178 0
5 -178 0
178 1 -2 -3 4 -5  0
-178 27 0
-1 -179 0
-2 -179 0
3 -179 0
-4 -179 0
5 -179 0
179 1 2 -3 4 -5  0
-179 27 0
-1 -180 0
-2 -180 0
-3 -180 0
-4 -180 0
-5 -180 0
180 1 2 3 4 5  0
-180 27 0
-27 178 179 180  0
-32 0
-1 -181 0
2 -181 0
3 -181 0
-4 -181 0
5 -181 0
181 1 -2 -3 4 -5  0
-181 38 0
-1 -182 0
-2 -182 0
3 -182 0
-4 -182 0
5 -182 0
182 1 2 -3 4 -5  0
-182 38 0
-1 -183 0
-2 -183 0
-3 -183 0
-4 -183 0
-5 -183 0
183 1 2 3 4 5  0
-183 38 0
-38 181 182 183  0
-1 -184 0
2 -184 0
-3 -184 0
4 -184 0
5 -184 0
184 1 -2 3 -4 -5  0
-184 45 0
1 -185 0
-2 -185 0
-3 -185 0
4 -185 0
5 -185 0
185 -1 2 3 -4 -5  0
-185 45 0
-1 -186 0
-2 -186 0
-3 -186 0
4 -186 0
5 -186 0
186 1 2 3 -4 -5  0
-186 45 0
-1 -187 0
2 -187 0
3 -187 0
-4 -187 0
5 -187 0
187 1 -2 -3 4 -5  0
-187 45 0
-1 -188 0
-2 -188 0
3 -188 0
-4 -188 0
5 -188 0
188 1 2 -3 4 -5  0
-188 45 0
1 -189 0
2 -189 0
-3 -189 0
-4 -189 0
5 -189 0
189 -1 -2 3 4 -5  0
-189 45 0
-1 -190 0
2 -190 0
-3 -190 0
-4 -190 0
5 -190 0
190 1 -2 3 4 -5  0
-190 45 0
1 -191 0
-2 -191 0
-3 -191 0
-4 -191 0
5 -191 0
191 -1 2 3 4 -5  0
-191 45 0
-1 -192 0
-2 -192 0
-3 -192 0
-4 -192 0
5 -192 0
192 1 2 3 4 -5  0
-192 45 0
1 -193 0
-2 -193 0
-3 -193 0
-4 -193 0
-5 -193 0
193 -1 2 3 4 5  0
-193 45 0
-45 184 185 186 187 188 189 190 191 192 193  0
-1 -194 0
2 -194 0
3 -194 0
-4 -194 0
5 -194 0
194 1 -2 -3 4 -5  0
-194 50 0
-1 -195 0
-2 -195 0
3 -195 0
-4 -195 0
5 -195 0
195 1 2 -3 4 -5  0
-195 50 0
-1 -196 0
-2 -196 0
-3 -196 0
-4 -196 0
-5 -196 0
196 1 2 3 4 5  0
-196 50 0
-50 194 195 196  0
-56 0
-1 -197 0
2 -197 0
-3 -197 0
4 -197 0
5 -197 0
197 1 -2 3 -4 -5  0
-197 60 0
-1 -198 0
-2 -198 0
-3 -198 0
4 -198 0
5 -198 0
198 1 2 3 -4 -5  0
-198 60 0
-1 -199 0
2 -199 0
3 -199 0
-4 -199 0
5 -199 0
199 1 -2 -3 4 -5  0
-199 60 0
-1 -200 0
-2 -200 0
3 -200 0
-4 -200 0
5 -200 0
200 1 2 -3 4 -5  0
-200 60 0
1 -201 0
2 -201 0
-3 -201 0
-4 -201 0
5 -201 0
201 -1 -2 3 4 -5  0
-201 60 0
1 -202 0
-2 -202 0
-3 -202 0
-4 -202 0
5 -202 0
202 -1 2 3 4 -5  0
-202 60 0
-1 -203 0
2 -203 0
3 -203 0
4 -203 0
-5 -203 0
203 1 -2 -3 -4 5  0
-203 60 0
-1 -204 0
-2 -204 0
3 -204 0
4 -204 0
-5 -204 0
204 1 2 -3 -4 5  0
-204 60 0
-60 197 198 199 200 201 202 203 204  0
1 -205 0
2 -205 0
-3 -205 0
4 -205 0
5 -205 0
205 -1 -2 3 -4 -5  0
-205 63 0
-1 -206 0
2 -206 0
-3 -206 0
4 -206 0
5 -206 0
206 1 -2 3 -4 -5  0
-206 63 0
-1 -207 0
2 -207 0
3 -207 0
-4 -207 0
5 -207 0
207 1 -2 -3 4 -5  0
-207 63 0
1 -208 0
2 -208 0
-3 -208 0
-4 -208 0
5 -208 0
208 -1 -2 3 4 -5  0
-208 63 0
-1 -209 0
2 -209 0
-3 -209 0
-4 -209 0
5 -209 0
209 1 -2 3 4 -5  0
-209 63 0
-1 -210 0
2 -210 0
3 -210 0
4 -210 0
-5 -210 0
210 1 -2 -3 -4 5  0
-210 63 0
1 -211 0
2 -211 0
-3 -211 0
4 -211 0
-5 -211 0
211 -1 -2 3 -4 5  0
-211 63 0
-1 -212 0
2 -212 0
-3 -212 0
4 -212 0
-5 -212 0
212 1 -2 3 -4 5  0
-212 63 0
-1 -213 0
2 -213 0
3 -213 0
-4 -213 0
-5 -213 0
213 1 -2 -3 4 5  0
-213 63 0
1 -214 0
2 -214 0
-3 -214 0
-4 -214 0
-5 -214 0
214 -1 -2 3 4 5  0
-214 63 0
-1 -215 0
2 -215 0
-3 -215 0
-4 -215 0
-5 -215 0
215 1 -2 3 4 5  0
-215 63 0
-63 205 206 207 208 209 210 211 212 213 214 215  0
-68 0
-1 -216 0
2 -216 0
3 -216 0
-4 -216 0
5 -216 0
216 1 -2 -3 4 -5  0
-216 72 0
-1 -217 0
-2 -217 0
3 -217 0
-4 -217 0
5 -217 0
217 1 2 -3 4 -5  0
-217 72 0
-1 -218 0
-2 -218 0
-3 -218 0
-4 -218 0
-5 -218 0
218 1 2 3 4 5  0
-218 72 0
-72 216 217 218  0
-1 -219 0
2 -219 0
-3 -219 0
4 -219 0
5 -219 0
219 1 -2 3 -4 -5  0
-219 77 0
-1 -220 0
-2 -220 0
-3 -220 0
4 -220 0
5 -220 0
220 1 2 3 -4 -5  0
-220 77 0
-1 -221 0
2 -221 0
3 -221 0
-4 -221 0
5 -221 0
221 1 -2 -3 4 -5  0
-221 77 0
-1 -222 0
-2 -222 0
3 -222 0
-4 -222 0
5 -222 0
222 1 2 -3 4 -5  0
-222 77 0
-1 -223 0
2 -223 0
-3 -223 0
-4 -223 0
5 -223 0
223 1 -2 3 4 -5  0
-223 77 0
1 -224 0
-2 -224 0
-3 -224 0
-4 -224 0
5 -224 0
224 -1 2 3 4 -5  0
-224 77 0
-1 -225 0
-2 -225 0
-3 -225 0
-4 -225 0
5 -225 0
225 1 2 3 4 -5  0
-225 77 0
-1 -226 0
2 -226 0
3 -226 0
4 -226 0
-5 -226 0
226 1 -2 -3 -4 5  0
-226 77 0
-1 -227 0
-2 -227 0
3 -227 0
4 -227 0
-5 -227 0
227 1 2 -3 -4 5  0
-227 77 0
1 -228 0
2 -228 0
-3 -228 0
4 -228 0
-5 -228 0
228 -1 -2 3 -4 5  0
-228 77 0
-1 -229 0
2 -229 0
-3 -229 0
4 -229 0
-5 -229 0
229 1 -2 3 -4 5  0
-229 77 0
1 -230 0
-2 -230 0
-3 -230 0
4 -230 0
-5 -230 0
230 -1 2 3 -4 5  0
-230 77 0
-1 -231 0
-2 -231 0
-3 -231 0
4 -231 0
-5 -231 0
231 1 2 3 -4 5  0
-231 77 0
-1 -232 0
2 -232 0
-3 -232 0
-4 -232 0
-5 -232 0
232 1 -2 3 4 5  0
-232 77 0
-1 -233 0
-2 -233 0
-3 -233 0
-4 -233 0
-5 -233 0
233 1 2 3 4 5  0
-233 77 0
-77 219 220 221 222 223 224 225 226 227 228 229 230 231 232 233  0
-1 -234 0
2 -234 0
3 -234 0
-4 -234 0
5 -234 0
234 1 -2 -3 4 -5  0
-234 81 0
-1 -235 0
-2 -235 0
3 -235 0
-4 -235 0
5 -235 0
235 1 2 -3 4 -5  0
-235 81 0
-1 -236 0
-2 -236 0
-3 -236 0
-4 -236 0
-5 -236 0
236 1 2 3 4 5  0
-236 81 0
-81 234 235 236  0
-86 0
-1 -237 0
2 -237 0
3 -237 0
-4 -237 0
5 -237 0
237 1 -2 -3 4 -5  0
-237 90 0
-1 -238 0
-2 -238 0
3 -238 0
-4 -238 0
5 -238 0
238 1 2 -3 4 -5  0
-238 90 0
-1 -239 0
-2 -239 0
-3 -239 0
-4 -239 0
-5 -239 0
239 1 2 3 4 5  0
-239 90 0
-90 237 238 239  0
1 -240 0
2 -240 0
-3 -240 0
4 -240 0
5 -240 0
240 -1 -2 3 -4 -5  0
-240 97 0
-1 -241 0
2 -241 0
-3 -241 0
4 -241 0
5 -241 0
241 1 -2 3 -4 -5  0
-241 97 0
-1 -242 0
2 -242 0
3 -242 0
-4 -242 0
5 -242 0
242 1 -2 -3 4 -5  0
-242 97 0
1 -243 0
2 -243 0
-3 -243 0
-4 -243 0
5 -243 0
243 -1 -2 3 4 -5  0
-243 97 0
-1 -244 0
2 -244 0
-3 -244 0
-4 -244 0
5 -244 0
244 1 -2 3 4 -5  0
-244 97 0
-1 -245 0
2 -245 0
3 -245 0
4 -245 0
-5 -245 0
245 1 -2 -3 -4 5  0
-245 97 0
1 -246 0
2 -246 0
-3 -246 0
4 -246 0
-5 -246 0
246 -1 -2 3 -4 5  0
-246 97 0
-1 -247 0
2 -247 0
-3 -247 0
4 -247 0
-5 -247 0
247 1 -2 3 -4 5  0
-247 97 0
-1 -248 0
2 -248 0
3 -248 0
-4 -248 0
-5 -248 0
248 1 -2 -3 4 5  0
-248 97 0
1 -249 0
2 -249 0
-3 -249 0
-4 -249 0
-5 -249 0
249 -1 -2 3 4 5  0
-249 97 0
-1 -250 0
2 -250 0
-3 -250 0
-4 -250 0
-5 -250 0
250 1 -2 3 4 5  0
-250 97 0
-97 240 241 242 243 244 245 246 247 248 249 250  0
-1 -251 0
2 -251 0
-3 -251 0
4 -251 0
5 -251 0
251 1 -2 3 -4 -5  0
-251 102 0
-1 -252 0
-2 -252 0
-3 -252 0
4 -252 0
5 -252 0
252 1 2 3 -4 -5  0
-252 102 0
-1 -253 0
2 -253 0
3 -253 0
-4 -253 0
5 -253 0
253 1 -2 -3 4 -5  0
-253 102 0
-1 -254 0
-2 -254 0
3 -254 0
-4 -254 0
5 -254 0
254 1 2 -3 4 -5  0
-254 102 0
1 -255 0
2 -255 0
-3 -255 0
-4 -255 0
5 -255 0
255 -1 -2 3 4 -5  0
-255 102 0
1 -256 0
-2 -256 0
-3 -256 0
-4 -256 0
5 -256 0
256 -1 2 3 4 -5  0
-256 102 0
-1 -257 0
2 -257 0
3 -257 0
4 -257 0
-5 -257 0
257 1 -2 -3 -4 5  0
-257 102 0
-1 -258 0
-2 -258 0
3 -258 0
4 -258 0
-5 -258 0
258 1 2 -3 -4 5  0
-258 102 0
-102 251 252 253 254 255 256 257 258  0
-1 -259 0
-2 -259 0
-3 -259 0
-4 -259 0
5 -259 0
259 1 2 3 4 -5  0
-259 109 0
-1 -260 0
2 -260 0
-3 -260 0
4 -260 0
-5 -260 0
260 1 -2 3 -4 5  0
-260 109 0
1 -261 0
-2 -261 0
-3 -261 0
4 -261 0
-5 -261 0
261 -1 2 3 -4 5  0
-261 109 0
-1 -262 0
-2 -262 0
-3 -262 0
4 -262 0
-5 -262 0
262 1 2 3 -4 5  0
-262 109 0
-1 -263 0
-2 -263 0
3 -263 0
-4 -263 0
-5 -263 0
263 1 2 -3 4 5  0
-263 109 0
1 -264 0
2 -264 0
-3 -264 0
-4 -264 0
-5 -264 0
264 -1 -2 3 4 5  0
-264 109 0
1 -265 0
-2 -265 0
-3 -265 0
-4 -265 0
-5 -265 0
265 -1 2 3 4 5  0
-265 109 0
-109 259 260 261 262 263 264 265  0
-1 -266 0
2 -266 0
-3 -266 0
4 -266 0
5 -266 0
266 1 -2 3 -4 -5  0
-266 115 0
-1 -267 0
-2 -267 0
-3 -267 0
4 -267 0
5 -267 0
267 1 2 3 -4 -5  0
-267 115 0
-1 -268 0
2 -268 0
3 -268 0
-4 -268 0
5 -268 0
268 1 -2 -3 4 -5  0
-268 115 0
-1 -269 0
-2 -269 0
3 -269 0
-4 -269 0
5 -269 0
269 1 2 -3 4 -5  0
-269 115 0
-1 -270 0
2 -270 0
-3 -270 0
-4 -270 0
5 -270 0
270 1 -2 3 4 -5  0
-270 115 0
-1 -271 0
-2 -271 0
3 -271 0
4 -271 0
-5 -271 0
271 1 2 -3 -4 5  0
-271 115 0
-1 -272 0
2 -272 0
-3 -272 0
-4 -272 0
-5 -272 0
272 1 -2 3 4 5  0
-272 115 0
-1 -273 0
-2 -273 0
-3 -273 0
-4 -273 0
-5 -273 0
273 1 2 3 4 5  0
-273 115 0
-115 266 267 268 269 270 271 272 273  0
-117 0
-1 -274 0
2 -274 0
3 -274 0
-4 -274 0
5 -274 0
274 1 -2 -3 4 -5  0
-274 124 0
-1 -275 0
-2 -275 0
3 -275 0
-4 -275 0
5 -275 0
275 1 2 -3 4 -5  0
-275 124 0
-1 -276 0
-2 -276 0
-3 -276 0
-4 -276 0
-5 -276 0
276 1 2 3 4 5  0
-276 124 0
-124 274 275 276  0
-130 0
-1 -277 0
2 -277 0
3 -277 0
-4 -277 0
5 -277 0
277 1 -2 -3 4 -5  0
-277 136 0
-1 -278 0
-2 -278 0
3 -278 0
-4 -278 0
5 -278 0
278 1 2 -3 4 -5  0
-278 136 0
-1 -279 0
-2 -279 0
-3 -279 0
-4 -279 0
-5 -279 0
279 1 2 3 4 5  0
-279 136 0
-136 277 278 279  0
-1 -280 0
2 -280 0
3 -280 0
-4 -280 0
5 -280 0
280 1 -2 -3 4 -5  0
-280 142 0
-1 -281 0
-2 -281 0
3 -281 0
-4 -281 0
5 -281 0
281 1 2 -3 4 -5  0
-281 142 0
-1 -282 0
2 -282 0
3 -282 0
4 -282 0
-5 -282 0
282 1 -2 -3 -4 5  0
-282 142 0
-1 -283 0
-2 -283 0
3 -283 0
4 -283 0
-5 -283 0
283 1 2 -3 -4 5  0
-283 142 0
-1 -284 0
2 -284 0
3 -284 0
-4 -284 0
-5 -284 0
284 1 -2 -3 4 5  0
-284 142 0
-142 280 281 282 283 284  0
-147 0
